% demand
num_movements = 40;
loading_factor = [1500, 1500, 800, 900, 1400, 1750, 1700, 1950, 900, 1300, 1600, 1400, 1700, 900, 1800, 1350, 1000, 1300, 1300, 1150, 1100, 2000, 900, 1900, 800, 1350, 1250, 1550, 1200, 900, 1850, 1250, 1250, 1150, 1100, 1550, 1400, 950, 1400, 1850];
pickup_time = [0, 0, 0, 0, 1, 1, 1, 1, 3, 3, 3, 3, 3, 3, 4, 6, 6, 7, 7, 7, 7, 7, 7, 8, 8, 8, 8, 8, 8, 9, 10, 10, 10, 10, 10, 10, 10, 11, 11, 12];
delivery_time = [3, 3, 1, 2, 2, 6, 2, 2, 4, 6, 6, 6, 8, 6, 6, 8, 7, 8, 8, 8, 8, 10, 10, 10, 12, 10, 9, 10, 9, 10, 11, 12, 13, 12, 12, 12, 13, 13, 13, 13];

% transporter definition
total_capacity = 11000;
num_decks = 4;
capacity = [3000, 3000, 1000, 4000];

% ways out of decks
num_ways_out = 2;
paths_out = array3d(decks, ways_out, decks, [
% ways out of deck d1
2, 4, 0, 0, 3, 4, 0, 0, 

% ways out of deck d2
4, 0, 0, 0, 0, 0, 0, 0,	

% ways out of deck d3
4, 0, 0, 0, 0, 0, 0, 0,	

% ways out of deck d4
0, 0, 0, 0,	0, 0, 0, 0,	

]);

